50
1000
494
489
481
470
468
467
443
442
440
437
434
418
404
401
400
393
374
371
363
362
361
355
353
351
349
347
337
333
328
322
321
315
283
260
257
255
255
246
237
231
224
212
211
205
191
186
184
182
174
173
